maximize
OBJ:100x0 + 100x1 + 100x2 + 100x3 + 100x4 + 100x5 + 100x6 + 100x7 + 100x8 + 100x9 + 100x10 + 100x11 + 100x12 + 100x13 + 100x14 + 100x15 + 100x16 + 100x17 + 100x18 + 100x19 + 100x20 + 100x21 + 100x22 + 100x23 + 100x24 + 100x25 + 100x26 + 100x27 + 100x28 + 100x29 + 100x30 + 100x31 + 100x32 + 100x33 + 100x34 + 100x35 + 100x36 + 100x37 + 100x38 + 100x39 + 100x40 + 100x41 + 100x42 + 100x43 + 100x44 + 100x45 + 100x46 + 100x47 + 100x48 + 100x49 + 100x50 + 100x51 + 100x52 + 100x53 + 100x54 + 100x55 + 100x56 + 100x57 + 100x58 + 100x59 + 100x60 + 100x61 + 100x62 + 100x63 + 100x64 + 100x65 + 100x66 + 100x67 + 100x68 + 100x69 - y55_57 - y47_53 - y55_66 - y7_26 - y36_62 - y15_39 - y17_58 - y26_39 - y7_35 - y18_35 - y47_62 - y59_64 - y8_9 - y0_5 - y40_41 - y48_63 - y21_46 - y11_23 - y40_59 - y29_68 - y40_68 - y21_64 - y10_27 - y41_42 - y10_36 - y2_32 - y33_47 - y2_41 - y10_54 - y51_64 - y22_37 - y2_68 - y14_33 - y32_69 - y43_69 - y24_65 - y15_25 - y17_44 - y55_61 - y17_53 - y59_68 - y5_60 - y6_43 - y6_52 - y40_54 - y21_59 - y25_29 - y33_42 - y10_49 - y10_58 - y51_59 - y13_51 - y3_28 - y43_64 - y13_60 - y24_60 - y3_37 - y14_37 - y16_56 - y13_69 - y36_52 - y47_52 - y55_65 - y5_46 - y28_48 - y36_61 - y17_57 - y9_53 - y6_38 - y40_49 - y6_56 - y10_26 - y2_22 - y2_31 - y10_44 - y12_63 - y32_41 - y3_14 - y22_27 - y3_23 - y32_59 - y24_55 - y14_32 - y16_51 - y16_60 - y17_25 - y17_34 - y36_47 - y55_60 - y17_43 - y36_56 - y47_56 - y5_50 - y9_48 - y5_68 - y29_35 - y50_67 - y61_67 - y39_48 - y39_57 - y31_53 - y10_30 - y62_68 - y2_35 - y12_67 - y23_67 - y32_45 - y43_45 - y13_41 - y35_50 - y43_63 - y13_59 - y16_55 - y17_20 - y35_68 - y16_64 - y5_27 - y17_38 - y47_51 - y28_47 - y29_30 - y58_66 - y9_61 - y27_60 - y6_37 - y6_46 - y19_65 - y30_65 - y10_16 - y12_44 - y20_66 - y4_49 - y31_66 - y12_62 - y3_4 - y32_40 - y1_34 - y43_49 - y1_43 - y43_58 - y1_61 - y24_63 - y5_22 - y57_60 - y9_29 - y38_65 - y28_42 - y58_61 - y27_55 - y50_57 - y27_64 - y11_56 - y8_69 - y19_69 - y20_34 - y0_65 - y30_69 - y31_34 - y20_43 - y20_61 - y31_61 - y53_67 - y43_44 - y16_27 - y13_40 - y24_40 - y35_40 - y43_53 - y1_47 - y17_19 - y1_65 - y38_51 - y5_26 - y9_24 - y49_60 - y28_37 - y26_67 - y49_69 - y6_9 - y50_52 - y58_65 - y19_46 - y8_64 - y19_64 - y11_60 - y12_25 - y20_38 - y31_38 - y11_69 - y2_11 - y31_47 - y39_60 - y20_56 - y1_24 - y13_26 - y4_57 - y24_44 - y1_51 - y16_49 - y38_46 - y5_21 - y46_59 - y26_53 - y5_30 - y49_64 - y5_39 - y7_58 - y19_32 - y19_41 - y27_54 - y42_52 - y11_55 - y30_68 - y11_64 - y12_29 - y20_42 - y23_38 - y20_51 - y4_34 - y31_51 - y12_56 - y13_21 - y34_53 - y13_30 - y64_66 - y4_61 - y16_26 - y56_62 - y1_37 - y37_58 - y14_65 - y3_65 - y37_67 - y5_16 - y15_48 - y26_48 - y57_63 - y15_57 - y15_66 - y26_66 - y27_49 - y19_45 - y30_45 - y42_47 - y11_41 - y30_54 - y12_15 - y8_63 - y30_63 - y0_59 - y0_68 - y11_68 - y33_65 - y12_42 - y34_48 - y24_25 - y53_61 - y34_57 - y56_57 - y3_51 - y22_64 - y45_66 - y3_60 - y14_69 - y18_39 - y15_52 - y26_52 - y18_48 - y26_61 - y49_63 - y7_57 - y8_22 - y18_57 - y27_35 - y11_18 - y63_65 - y11_45 - y20_23 - y4_6 - y0_54 - y41_55 - y20_32 - y12_28 - y4_24 - y23_37 - y25_56 - y4_33 - y33_69 - y44_69 - y2_63 - y22_50 - y34_52 - y53_65 - y3_46 - y56_61 - y14_64 - y15_29 - y5_6 - y18_25 - y26_38 - y15_47 - y26_47 - y7_52 - y8_17 - y7_61 - y48_62 - y29_58 - y0_31 - y11_31 - y63_69 - y11_40 - y41_50 - y60_63 - y41_59 - y52_59 - y4_19 - y33_55 - y33_64 - y2_67 - y45_47 - y3_41 - y14_41 - y37_43 - y37_52 - y37_61 - y15_24 - y7_20 - y14_68 - y15_33 - y18_29 - y18_47 - y0_8 - y29_53 - y8_30 - y48_66 - y29_62 - y40_62 - y63_64 - y0_35 - y11_35 - y21_67 - y4_5 - y33_41 - y25_37 - y4_14 - y14_56 - y33_59 - y44_68 - y34_42 - y3_36 - y22_49 - y3_45 - y14_45 - y37_56 - y15_19 - y14_63 - y26_28 - y15_37 - y7_33 - y47_69 - y7_42 - y19_25 - y48_61 - y0_21 - y11_30 - y40_66 - y21_62 - y33_36 - y41_49 - y25_32 - y44_45 - y33_54 - y2_48 - y10_61 - y22_26 - y33_63 - y25_59 - y14_22 - y66_69 - y3_40 - y14_40 - y47_64 - y59_66 - y9_56 - y8_11 - y0_7 - y48_56 - y21_39 - y29_52 - y48_65 - y6_59 - y41_44 - y10_38 - y33_40 - y2_34 - y33_49 - y44_49 - y25_45 - y2_52 - y14_17 - y25_54 - y2_61 - y7_14 - y18_23 - y9_42 - y5_53 - y17_55 - y28_64 - y6_27 - y9_60 - y0_2 - y9_69 - y48_51 - y29_47 - y40_47 - y21_43 - y29_56 - y10_15 - y21_61 - y2_20 - y54_58 - y10_42 - y25_40 - y3_12 - y32_48 - y43_48 - y14_21 - y32_66 - y66_68 - y1_69 - y7_9 - y36_54 - y55_67 - y47_63 - y58_69 - y50_65 - y6_40 - y29_42 - y29_51 - y40_51 - y21_47 - y2_6 - y10_28 - y2_42 - y51_56 - y3_16 - y24_48 - y14_25 - y43_61 - y13_57 - y17_18 - y1_64 - y24_66 - y16_62 - y9_23 - y17_36 - y36_49 - y47_49 - y6_8 - y47_58 - y5_52 - y5_61 - y28_63 - y21_33 - y50_69 - y20_46 - y39_59 - y54_57 - y12_51 - y23_51 - y12_60 - y12_69 - y23_69 - y3_11 - y32_56 - y16_39 - y43_56 - y24_52 - y32_65 - y16_48 - y1_59 - y13_61 - y17_22 - y1_68 - y9_18 - y46_67 - y36_44 - y28_40 - y5_47 - y28_49 - y50_55 - y27_62 - y50_64 - y19_67 - y20_41 - y10_18 - y2_14 - y31_50 - y2_23 - y4_42 - y20_59 - y31_59 - y12_64 - y1_27 - y13_38 - y4_69 - y24_47 - y24_56 - y46_53 - y65_66 - y5_24 - y9_22 - y49_58 - y27_57 - y8_53 - y61_68 - y0_49 - y8_62 - y19_62 - y30_62 - y0_58 - y39_49 - y23_32 - y20_45 - y31_45 - y12_41 - y31_54 - y12_59 - y1_22 - y53_60 - y12_68 - y13_33 - y32_46 - y34_65 - y43_46 - y13_42 - y1_58 - y5_19 - y46_57 - y9_17 - y49_53 - y17_30 - y28_30 - y46_66 - y26_60 - y57_66 - y7_65 - y19_39 - y50_54 - y8_48 - y0_44 - y11_44 - y8_57 - y30_57 - y0_53 - y11_53 - y19_66 - y39_44 - y23_27 - y4_23 - y12_36 - y20_49 - y4_32 - y31_58 - y53_55 - y4_50 - y23_63 - y1_26 - y4_59 - y16_24 - y56_60 - y22_67 - y34_69 - y38_39 - y5_14 - y15_46 - y15_55 - y38_57 - y18_51 - y38_66 - y49_66 - y7_60 - y8_25 - y18_60 - y27_38 - y7_69 - y18_69 - y30_34 - y27_47 - y0_30 - y8_43 - y19_43 - y30_43 - y8_52 - y19_52 - y12_13 - y8_61 - y19_61 - y60_62 - y12_22 - y52_67 - y20_44 - y31_44 - y12_49 - y25_68 - y1_21 - y53_59 - y4_54 - y16_19 - y34_55 - y53_68 - y64_68 - y16_28 - y56_64 - y5_9 - y5_18 - y9_16 - y15_50 - y26_50 - y38_52 - y57_65 - y49_61 - y7_55 - y8_20 - y18_64 - y19_38 - y0_34 - y30_47 - y42_49 - y11_43 - y8_56 - y19_56 - y20_21 - y0_52 - y12_17 - y52_53 - y60_66 - y4_13 - y11_61 - y23_35 - y44_67 - y1_7 - y1_16 - y13_18 - y22_48 - y1_25 - y53_63 - y16_23 - y45_59 - y3_53 - y14_62 - y15_36 - y46_51 - y15_45 - y15_54 - y8_15 - y27_28 - y27_37 - y11_20 - y19_33 - y29_65 - y40_65 - y30_42 - y0_38 - y19_51 - y30_51 - y0_47 - y11_47 - y44_53 - y10_60 - y33_62 - y25_58 - y34_36 - y53_58 - y3_39 - y37_41 - y37_50 - y37_59 - y15_22 - y67_69 - y18_27 - y37_49 - y26_40 - y18_36 - y26_49 - y8_19 - y27_32 - y8_28 - y48_64 - y30_37 - y6_67 - y29_69 - y40_69 - y0_42 - y11_42 - y41_61 - y10_55 - y44_57 - y22_29 - y1_6 - y22_47 - y34_49 - y14_43 - y45_58 - y56_58 - y22_65 - y3_61 - y14_61 - y59_60 - y15_35 - y26_35 - y7_31 - y47_67 - y59_69 - y17_63 - y7_49 - y8_14 - y18_49 - y29_46 - y40_55 - y48_68 - y0_28 - y6_62 - y40_64 - y25_30 - y52_56 - y25_39 - y33_52 - y41_65 - y2_55 - y25_57 - y10_68 - y22_33 - y2_64 - y3_29 - y14_29 - y22_42 - y3_38 - y3_47 - y3_56
 Subject to
C1: x0+x2-y0_2 <=1 
C2: x0+x3 <=1 
C3: x0+x5-y0_5 <=1 
C4: x0+x7-y0_7 <=1 
C5: x0+x8-y0_8 <=1 
C6: x0+x11 <=1 
C7: x0+x13 <=1 
C8: x0+x14 <=1 
C9: x0+x17 <=1 
C10: x0+x19 <=1 
C11: x0+x21-y0_21 <=1 
C12: x0+x22 <=1 
C13: x0+x24 <=1 
C14: x0+x26 <=1 
C15: x0+x28-y0_28 <=1 
C16: x0+x30-y0_30 <=1 
C17: x0+x31-y0_31 <=1 
C18: x0+x34-y0_34 <=1 
C19: x0+x35-y0_35 <=1 
C20: x0+x36 <=1 
C21: x0+x38-y0_38 <=1 
C22: x0+x39 <=1 
C23: x0+x42-y0_42 <=1 
C24: x0+x43 <=1 
C25: x0+x44-y0_44 <=1 
C26: x0+x46 <=1 
C27: x0+x47-y0_47 <=1 
C28: x0+x48 <=1 
C29: x0+x49-y0_49 <=1 
C30: x0+x52-y0_52 <=1 
C31: x0+x53-y0_53 <=1 
C32: x0+x54-y0_54 <=1 
C33: x0+x55 <=1 
C34: x0+x57 <=1 
C35: x0+x58-y0_58 <=1 
C36: x0+x59-y0_59 <=1 
C37: x0+x62 <=1 
C38: x0+x65-y0_65 <=1 
C39: x0+x68-y0_68 <=1 
C40: x1+x3 <=1 
C41: x1+x5 <=1 
C42: x1+x6-y1_6 <=1 
C43: x1+x7-y1_7 <=1 
C44: x1+x8 <=1 
C45: x1+x9 <=1 
C46: x1+x11 <=1 
C47: x1+x14 <=1 
C48: x1+x16-y1_16 <=1 
C49: x1+x19 <=1 
C50: x1+x21-y1_21 <=1 
C51: x1+x22-y1_22 <=1 
C52: x1+x24-y1_24 <=1 
C53: x1+x25-y1_25 <=1 
C54: x1+x26-y1_26 <=1 
C55: x1+x27-y1_27 <=1 
C56: x1+x28 <=1 
C57: x1+x29 <=1 
C58: x1+x31 <=1 
C59: x1+x32 <=1 
C60: x1+x34-y1_34 <=1 
C61: x1+x36 <=1 
C62: x1+x37-y1_37 <=1 
C63: x1+x38 <=1 
C64: x1+x39 <=1 
C65: x1+x40 <=1 
C66: x1+x43-y1_43 <=1 
C67: x1+x44 <=1 
C68: x1+x45 <=1 
C69: x1+x47-y1_47 <=1 
C70: x1+x48 <=1 
C71: x1+x49 <=1 
C72: x1+x50 <=1 
C73: x1+x51-y1_51 <=1 
C74: x1+x54 <=1 
C75: x1+x57 <=1 
C76: x1+x58-y1_58 <=1 
C77: x1+x59-y1_59 <=1 
C78: x1+x61-y1_61 <=1 
C79: x1+x63 <=1 
C80: x1+x64-y1_64 <=1 
C81: x1+x65-y1_65 <=1 
C82: x1+x66 <=1 
C83: x1+x68-y1_68 <=1 
C84: x1+x69-y1_69 <=1 
C85: x2+x6-y2_6 <=1 
C86: x2+x8 <=1 
C87: x2+x9 <=1 
C88: x2+x11-y2_11 <=1 
C89: x2+x14-y2_14 <=1 
C90: x2+x15 <=1 
C91: x2+x18 <=1 
C92: x2+x19 <=1 
C93: x2+x20-y2_20 <=1 
C94: x2+x21 <=1 
C95: x2+x22-y2_22 <=1 
C96: x2+x23-y2_23 <=1 
C97: x2+x24 <=1 
C98: x2+x30 <=1 
C99: x2+x31-y2_31 <=1 
C100: x2+x32-y2_32 <=1 
C101: x2+x33 <=1 
C102: x2+x34-y2_34 <=1 
C103: x2+x35-y2_35 <=1 
C104: x2+x37 <=1 
C105: x2+x41-y2_41 <=1 
C106: x2+x42-y2_42 <=1 
C107: x2+x43 <=1 
C108: x2+x47 <=1 
C109: x2+x48-y2_48 <=1 
C110: x2+x51 <=1 
C111: x2+x52-y2_52 <=1 
C112: x2+x55-y2_55 <=1 
C113: x2+x57 <=1 
C114: x2+x60 <=1 
C115: x2+x61-y2_61 <=1 
C116: x2+x63-y2_63 <=1 
C117: x2+x64-y2_64 <=1 
C118: x2+x65 <=1 
C119: x2+x66 <=1 
C120: x2+x67-y2_67 <=1 
C121: x2+x68-y2_68 <=1 
C122: x3+x4-y3_4 <=1 
C123: x3+x5 <=1 
C124: x3+x6 <=1 
C125: x3+x11-y3_11 <=1 
C126: x3+x12-y3_12 <=1 
C127: x3+x14-y3_14 <=1 
C128: x3+x16-y3_16 <=1 
C129: x3+x17 <=1 
C130: x3+x23-y3_23 <=1 
C131: x3+x24 <=1 
C132: x3+x25 <=1 
C133: x3+x26 <=1 
C134: x3+x28-y3_28 <=1 
C135: x3+x29-y3_29 <=1 
C136: x3+x30 <=1 
C137: x3+x31 <=1 
C138: x3+x33 <=1 
C139: x3+x35 <=1 
C140: x3+x36-y3_36 <=1 
C141: x3+x37-y3_37 <=1 
C142: x3+x38-y3_38 <=1 
C143: x3+x39-y3_39 <=1 
C144: x3+x40-y3_40 <=1 
C145: x3+x41-y3_41 <=1 
C146: x3+x42 <=1 
C147: x3+x45-y3_45 <=1 
C148: x3+x46-y3_46 <=1 
C149: x3+x47-y3_47 <=1 
C150: x3+x48 <=1 
C151: x3+x50 <=1 
C152: x3+x51-y3_51 <=1 
C153: x3+x52 <=1 
C154: x3+x53-y3_53 <=1 
C155: x3+x56-y3_56 <=1 
C156: x3+x58 <=1 
C157: x3+x60-y3_60 <=1 
C158: x3+x61-y3_61 <=1 
C159: x3+x62 <=1 
C160: x3+x65-y3_65 <=1 
C161: x3+x67 <=1 
C162: x3+x69 <=1 
C163: x4+x5-y4_5 <=1 
C164: x4+x6-y4_6 <=1 
C165: x4+x7 <=1 
C166: x4+x8 <=1 
C167: x4+x9 <=1 
C168: x4+x11 <=1 
C169: x4+x13-y4_13 <=1 
C170: x4+x14-y4_14 <=1 
C171: x4+x15 <=1 
C172: x4+x17 <=1 
C173: x4+x18 <=1 
C174: x4+x19-y4_19 <=1 
C175: x4+x21 <=1 
C176: x4+x23-y4_23 <=1 
C177: x4+x24-y4_24 <=1 
C178: x4+x25 <=1 
C179: x4+x26 <=1 
C180: x4+x30 <=1 
C181: x4+x32-y4_32 <=1 
C182: x4+x33-y4_33 <=1 
C183: x4+x34-y4_34 <=1 
C184: x4+x42-y4_42 <=1 
C185: x4+x48 <=1 
C186: x4+x49-y4_49 <=1 
C187: x4+x50-y4_50 <=1 
C188: x4+x51 <=1 
C189: x4+x52 <=1 
C190: x4+x54-y4_54 <=1 
C191: x4+x56 <=1 
C192: x4+x57-y4_57 <=1 
C193: x4+x59-y4_59 <=1 
C194: x4+x60 <=1 
C195: x4+x61-y4_61 <=1 
C196: x4+x64 <=1 
C197: x4+x66 <=1 
C198: x4+x67 <=1 
C199: x4+x69-y4_69 <=1 
C200: x5+x6-y5_6 <=1 
C201: x5+x7 <=1 
C202: x5+x9-y5_9 <=1 
C203: x5+x11 <=1 
C204: x5+x12 <=1 
C205: x5+x14-y5_14 <=1 
C206: x5+x16-y5_16 <=1 
C207: x5+x17 <=1 
C208: x5+x18-y5_18 <=1 
C209: x5+x19-y5_19 <=1 
C210: x5+x20 <=1 
C211: x5+x21-y5_21 <=1 
C212: x5+x22-y5_22 <=1 
C213: x5+x24-y5_24 <=1 
C214: x5+x26-y5_26 <=1 
C215: x5+x27-y5_27 <=1 
C216: x5+x28 <=1 
C217: x5+x30-y5_30 <=1 
C218: x5+x32 <=1 
C219: x5+x35 <=1 
C220: x5+x36 <=1 
C221: x5+x39-y5_39 <=1 
C222: x5+x40 <=1 
C223: x5+x42 <=1 
C224: x5+x43 <=1 
C225: x5+x45 <=1 
C226: x5+x46-y5_46 <=1 
C227: x5+x47-y5_47 <=1 
C228: x5+x50-y5_50 <=1 
C229: x5+x52-y5_52 <=1 
C230: x5+x53-y5_53 <=1 
C231: x5+x54 <=1 
C232: x5+x57 <=1 
C233: x5+x58 <=1 
C234: x5+x59 <=1 
C235: x5+x60-y5_60 <=1 
C236: x5+x61-y5_61 <=1 
C237: x5+x64 <=1 
C238: x5+x67 <=1 
C239: x5+x68-y5_68 <=1 
C240: x6+x8-y6_8 <=1 
C241: x6+x9-y6_9 <=1 
C242: x6+x11 <=1 
C243: x6+x17 <=1 
C244: x6+x19 <=1 
C245: x6+x21 <=1 
C246: x6+x22 <=1 
C247: x6+x27-y6_27 <=1 
C248: x6+x28 <=1 
C249: x6+x33 <=1 
C250: x6+x35 <=1 
C251: x6+x36 <=1 
C252: x6+x37-y6_37 <=1 
C253: x6+x38-y6_38 <=1 
C254: x6+x39 <=1 
C255: x6+x40-y6_40 <=1 
C256: x6+x42 <=1 
C257: x6+x43-y6_43 <=1 
C258: x6+x45 <=1 
C259: x6+x46-y6_46 <=1 
C260: x6+x47 <=1 
C261: x6+x48 <=1 
C262: x6+x49 <=1 
C263: x6+x51 <=1 
C264: x6+x52-y6_52 <=1 
C265: x6+x53 <=1 
C266: x6+x55 <=1 
C267: x6+x56-y6_56 <=1 
C268: x6+x58 <=1 
C269: x6+x59-y6_59 <=1 
C270: x6+x62-y6_62 <=1 
C271: x6+x65 <=1 
C272: x6+x66 <=1 
C273: x6+x67-y6_67 <=1 
C274: x6+x69 <=1 
C275: x7+x8 <=1 
C276: x7+x9-y7_9 <=1 
C277: x7+x10 <=1 
C278: x7+x11 <=1 
C279: x7+x14-y7_14 <=1 
C280: x7+x19 <=1 
C281: x7+x20-y7_20 <=1 
C282: x7+x21 <=1 
C283: x7+x22 <=1 
C284: x7+x23 <=1 
C285: x7+x26-y7_26 <=1 
C286: x7+x29 <=1 
C287: x7+x30 <=1 
C288: x7+x31-y7_31 <=1 
C289: x7+x33-y7_33 <=1 
C290: x7+x34 <=1 
C291: x7+x35-y7_35 <=1 
C292: x7+x40 <=1 
C293: x7+x41 <=1 
C294: x7+x42-y7_42 <=1 
C295: x7+x45 <=1 
C296: x7+x46 <=1 
C297: x7+x49-y7_49 <=1 
C298: x7+x50 <=1 
C299: x7+x52-y7_52 <=1 
C300: x7+x53 <=1 
C301: x7+x54 <=1 
C302: x7+x55-y7_55 <=1 
C303: x7+x57-y7_57 <=1 
C304: x7+x58-y7_58 <=1 
C305: x7+x59 <=1 
C306: x7+x60-y7_60 <=1 
C307: x7+x61-y7_61 <=1 
C308: x7+x65-y7_65 <=1 
C309: x7+x66 <=1 
C310: x7+x69-y7_69 <=1 
C311: x8+x9-y8_9 <=1 
C312: x8+x10 <=1 
C313: x8+x11-y8_11 <=1 
C314: x8+x12 <=1 
C315: x8+x13 <=1 
C316: x8+x14-y8_14 <=1 
C317: x8+x15-y8_15 <=1 
C318: x8+x16 <=1 
C319: x8+x17-y8_17 <=1 
C320: x8+x19-y8_19 <=1 
C321: x8+x20-y8_20 <=1 
C322: x8+x21 <=1 
C323: x8+x22-y8_22 <=1 
C324: x8+x23 <=1 
C325: x8+x25-y8_25 <=1 
C326: x8+x27 <=1 
C327: x8+x28-y8_28 <=1 
C328: x8+x30-y8_30 <=1 
C329: x8+x31 <=1 
C330: x8+x35 <=1 
C331: x8+x36 <=1 
C332: x8+x37 <=1 
C333: x8+x38 <=1 
C334: x8+x41 <=1 
C335: x8+x43-y8_43 <=1 
C336: x8+x44 <=1 
C337: x8+x46 <=1 
C338: x8+x47 <=1 
C339: x8+x48-y8_48 <=1 
C340: x8+x50 <=1 
C341: x8+x51 <=1 
C342: x8+x52-y8_52 <=1 
C343: x8+x53-y8_53 <=1 
C344: x8+x55 <=1 
C345: x8+x56-y8_56 <=1 
C346: x8+x57-y8_57 <=1 
C347: x8+x58 <=1 
C348: x8+x59 <=1 
C349: x8+x61-y8_61 <=1 
C350: x8+x62-y8_62 <=1 
C351: x8+x63-y8_63 <=1 
C352: x8+x64-y8_64 <=1 
C353: x8+x65 <=1 
C354: x8+x66 <=1 
C355: x8+x69-y8_69 <=1 
C356: x9+x10 <=1 
C357: x9+x12 <=1 
C358: x9+x16-y9_16 <=1 
C359: x9+x17-y9_17 <=1 
C360: x9+x18-y9_18 <=1 
C361: x9+x19 <=1 
C362: x9+x20 <=1 
C363: x9+x21 <=1 
C364: x9+x22-y9_22 <=1 
C365: x9+x23-y9_23 <=1 
C366: x9+x24-y9_24 <=1 
C367: x9+x25 <=1 
C368: x9+x26 <=1 
C369: x9+x28 <=1 
C370: x9+x29-y9_29 <=1 
C371: x9+x30 <=1 
C372: x9+x31 <=1 
C373: x9+x32 <=1 
C374: x9+x34 <=1 
C375: x9+x38 <=1 
C376: x9+x42-y9_42 <=1 
C377: x9+x45 <=1 
C378: x9+x47 <=1 
C379: x9+x48-y9_48 <=1 
C380: x9+x49 <=1 
C381: x9+x50 <=1 
C382: x9+x51 <=1 
C383: x9+x53-y9_53 <=1 
C384: x9+x55 <=1 
C385: x9+x56-y9_56 <=1 
C386: x9+x60-y9_60 <=1 
C387: x9+x61-y9_61 <=1 
C388: x9+x62 <=1 
C389: x9+x66 <=1 
C390: x9+x67 <=1 
C391: x9+x68 <=1 
C392: x9+x69-y9_69 <=1 
C393: x10+x12 <=1 
C394: x10+x13 <=1 
C395: x10+x14 <=1 
C396: x10+x15-y10_15 <=1 
C397: x10+x16-y10_16 <=1 
C398: x10+x18-y10_18 <=1 
C399: x10+x19 <=1 
C400: x10+x21 <=1 
C401: x10+x25 <=1 
C402: x10+x26-y10_26 <=1 
C403: x10+x27-y10_27 <=1 
C404: x10+x28-y10_28 <=1 
C405: x10+x30-y10_30 <=1 
C406: x10+x32 <=1 
C407: x10+x34 <=1 
C408: x10+x36-y10_36 <=1 
C409: x10+x37 <=1 
C410: x10+x38-y10_38 <=1 
C411: x10+x39 <=1 
C412: x10+x42-y10_42 <=1 
C413: x10+x44-y10_44 <=1 
C414: x10+x46 <=1 
C415: x10+x48 <=1 
C416: x10+x49-y10_49 <=1 
C417: x10+x53 <=1 
C418: x10+x54-y10_54 <=1 
C419: x10+x55-y10_55 <=1 
C420: x10+x56 <=1 
C421: x10+x58-y10_58 <=1 
C422: x10+x59 <=1 
C423: x10+x60-y10_60 <=1 
C424: x10+x61-y10_61 <=1 
C425: x10+x64 <=1 
C426: x10+x67 <=1 
C427: x10+x68-y10_68 <=1 
C428: x11+x17 <=1 
C429: x11+x18-y11_18 <=1 
C430: x11+x19 <=1 
C431: x11+x20-y11_20 <=1 
C432: x11+x22 <=1 
C433: x11+x23-y11_23 <=1 
C434: x11+x25 <=1 
C435: x11+x30-y11_30 <=1 
C436: x11+x31-y11_31 <=1 
C437: x11+x33 <=1 
C438: x11+x35-y11_35 <=1 
C439: x11+x37 <=1 
C440: x11+x38 <=1 
C441: x11+x39 <=1 
C442: x11+x40-y11_40 <=1 
C443: x11+x41-y11_41 <=1 
C444: x11+x42-y11_42 <=1 
C445: x11+x43-y11_43 <=1 
C446: x11+x44-y11_44 <=1 
C447: x11+x45-y11_45 <=1 
C448: x11+x46 <=1 
C449: x11+x47-y11_47 <=1 
C450: x11+x49 <=1 
C451: x11+x50 <=1 
C452: x11+x52 <=1 
C453: x11+x53-y11_53 <=1 
C454: x11+x55-y11_55 <=1 
C455: x11+x56-y11_56 <=1 
C456: x11+x58 <=1 
C457: x11+x60-y11_60 <=1 
C458: x11+x61-y11_61 <=1 
C459: x11+x63 <=1 
C460: x11+x64-y11_64 <=1 
C461: x11+x65 <=1 
C462: x11+x66 <=1 
C463: x11+x67 <=1 
C464: x11+x68-y11_68 <=1 
C465: x11+x69-y11_69 <=1 
C466: x12+x13-y12_13 <=1 
C467: x12+x15-y12_15 <=1 
C468: x12+x16 <=1 
C469: x12+x17-y12_17 <=1 
C470: x12+x19 <=1 
C471: x12+x20 <=1 
C472: x12+x22-y12_22 <=1 
C473: x12+x23 <=1 
C474: x12+x25-y12_25 <=1 
C475: x12+x26 <=1 
C476: x12+x28-y12_28 <=1 
C477: x12+x29-y12_29 <=1 
C478: x12+x32 <=1 
C479: x12+x35 <=1 
C480: x12+x36-y12_36 <=1 
C481: x12+x39 <=1 
C482: x12+x41-y12_41 <=1 
C483: x12+x42-y12_42 <=1 
C484: x12+x44-y12_44 <=1 
C485: x12+x45 <=1 
C486: x12+x48 <=1 
C487: x12+x49-y12_49 <=1 
C488: x12+x51-y12_51 <=1 
C489: x12+x56-y12_56 <=1 
C490: x12+x58 <=1 
C491: x12+x59-y12_59 <=1 
C492: x12+x60-y12_60 <=1 
C493: x12+x61 <=1 
C494: x12+x62-y12_62 <=1 
C495: x12+x63-y12_63 <=1 
C496: x12+x64-y12_64 <=1 
C497: x12+x65 <=1 
C498: x12+x66 <=1 
C499: x12+x67-y12_67 <=1 
C500: x12+x68-y12_68 <=1 
C501: x12+x69-y12_69 <=1 
C502: x13+x18-y13_18 <=1 
C503: x13+x19 <=1 
C504: x13+x21-y13_21 <=1 
C505: x13+x25 <=1 
C506: x13+x26-y13_26 <=1 
C507: x13+x27 <=1 
C508: x13+x30-y13_30 <=1 
C509: x13+x31 <=1 
C510: x13+x33-y13_33 <=1 
C511: x13+x38-y13_38 <=1 
C512: x13+x40-y13_40 <=1 
C513: x13+x41-y13_41 <=1 
C514: x13+x42-y13_42 <=1 
C515: x13+x44 <=1 
C516: x13+x50 <=1 
C517: x13+x51-y13_51 <=1 
C518: x13+x52 <=1 
C519: x13+x55 <=1 
C520: x13+x57-y13_57 <=1 
C521: x13+x58 <=1 
C522: x13+x59-y13_59 <=1 
C523: x13+x60-y13_60 <=1 
C524: x13+x61-y13_61 <=1 
C525: x13+x63 <=1 
C526: x13+x64 <=1 
C527: x13+x66 <=1 
C528: x13+x69-y13_69 <=1 
C529: x14+x15 <=1 
C530: x14+x16 <=1 
C531: x14+x17-y14_17 <=1 
C532: x14+x19 <=1 
C533: x14+x21-y14_21 <=1 
C534: x14+x22-y14_22 <=1 
C535: x14+x23 <=1 
C536: x14+x25-y14_25 <=1 
C537: x14+x29-y14_29 <=1 
C538: x14+x30 <=1 
C539: x14+x32-y14_32 <=1 
C540: x14+x33-y14_33 <=1 
C541: x14+x34 <=1 
C542: x14+x36 <=1 
C543: x14+x37-y14_37 <=1 
C544: x14+x40-y14_40 <=1 
C545: x14+x41-y14_41 <=1 
C546: x14+x43-y14_43 <=1 
C547: x14+x45-y14_45 <=1 
C548: x14+x47 <=1 
C549: x14+x54 <=1 
C550: x14+x56-y14_56 <=1 
C551: x14+x58 <=1 
C552: x14+x59 <=1 
C553: x14+x60 <=1 
C554: x14+x61-y14_61 <=1 
C555: x14+x62-y14_62 <=1 
C556: x14+x63-y14_63 <=1 
C557: x14+x64-y14_64 <=1 
C558: x14+x65-y14_65 <=1 
C559: x14+x66 <=1 
C560: x14+x68-y14_68 <=1 
C561: x14+x69-y14_69 <=1 
C562: x15+x16 <=1 
C563: x15+x19-y15_19 <=1 
C564: x15+x20 <=1 
C565: x15+x22-y15_22 <=1 
C566: x15+x24-y15_24 <=1 
C567: x15+x25-y15_25 <=1 
C568: x15+x26 <=1 
C569: x15+x27 <=1 
C570: x15+x28 <=1 
C571: x15+x29-y15_29 <=1 
C572: x15+x30 <=1 
C573: x15+x33-y15_33 <=1 
C574: x15+x35-y15_35 <=1 
C575: x15+x36-y15_36 <=1 
C576: x15+x37-y15_37 <=1 
C577: x15+x38 <=1 
C578: x15+x39-y15_39 <=1 
C579: x15+x40 <=1 
C580: x15+x41 <=1 
C581: x15+x42 <=1 
C582: x15+x43 <=1 
C583: x15+x44 <=1 
C584: x15+x45-y15_45 <=1 
C585: x15+x46-y15_46 <=1 
C586: x15+x47-y15_47 <=1 
C587: x15+x48-y15_48 <=1 
C588: x15+x49 <=1 
C589: x15+x50-y15_50 <=1 
C590: x15+x52-y15_52 <=1 
C591: x15+x53 <=1 
C592: x15+x54-y15_54 <=1 
C593: x15+x55-y15_55 <=1 
C594: x15+x56 <=1 
C595: x15+x57-y15_57 <=1 
C596: x15+x59 <=1 
C597: x15+x61 <=1 
C598: x15+x63 <=1 
C599: x15+x64 <=1 
C600: x15+x65 <=1 
C601: x15+x66-y15_66 <=1 
C602: x15+x68 <=1 
C603: x16+x17 <=1 
C604: x16+x19-y16_19 <=1 
C605: x16+x20 <=1 
C606: x16+x23-y16_23 <=1 
C607: x16+x24-y16_24 <=1 
C608: x16+x25 <=1 
C609: x16+x26-y16_26 <=1 
C610: x16+x27-y16_27 <=1 
C611: x16+x28-y16_28 <=1 
C612: x16+x29 <=1 
C613: x16+x33 <=1 
C614: x16+x34 <=1 
C615: x16+x36 <=1 
C616: x16+x39-y16_39 <=1 
C617: x16+x40 <=1 
C618: x16+x43 <=1 
C619: x16+x45 <=1 
C620: x16+x48-y16_48 <=1 
C621: x16+x49-y16_49 <=1 
C622: x16+x51-y16_51 <=1 
C623: x16+x54 <=1 
C624: x16+x55-y16_55 <=1 
C625: x16+x56-y16_56 <=1 
C626: x16+x57 <=1 
C627: x16+x60-y16_60 <=1 
C628: x16+x62-y16_62 <=1 
C629: x16+x63 <=1 
C630: x16+x64-y16_64 <=1 
C631: x16+x65 <=1 
C632: x16+x66 <=1 
C633: x16+x67 <=1 
C634: x16+x68 <=1 
C635: x17+x18-y17_18 <=1 
C636: x17+x19-y17_19 <=1 
C637: x17+x20-y17_20 <=1 
C638: x17+x22-y17_22 <=1 
C639: x17+x24 <=1 
C640: x17+x25-y17_25 <=1 
C641: x17+x26 <=1 
C642: x17+x29 <=1 
C643: x17+x30-y17_30 <=1 
C644: x17+x33 <=1 
C645: x17+x34-y17_34 <=1 
C646: x17+x36-y17_36 <=1 
C647: x17+x38-y17_38 <=1 
C648: x17+x42 <=1 
C649: x17+x43-y17_43 <=1 
C650: x17+x44-y17_44 <=1 
C651: x17+x47 <=1 
C652: x17+x49 <=1 
C653: x17+x51 <=1 
C654: x17+x52 <=1 
C655: x17+x53-y17_53 <=1 
C656: x17+x54 <=1 
C657: x17+x55-y17_55 <=1 
C658: x17+x57-y17_57 <=1 
C659: x17+x58-y17_58 <=1 
C660: x17+x63-y17_63 <=1 
C661: x17+x65 <=1 
C662: x17+x66 <=1 
C663: x17+x68 <=1 
C664: x18+x21 <=1 
C665: x18+x22 <=1 
C666: x18+x23-y18_23 <=1 
C667: x18+x25-y18_25 <=1 
C668: x18+x27-y18_27 <=1 
C669: x18+x28 <=1 
C670: x18+x29-y18_29 <=1 
C671: x18+x30 <=1 
C672: x18+x33 <=1 
C673: x18+x35-y18_35 <=1 
C674: x18+x36-y18_36 <=1 
C675: x18+x39-y18_39 <=1 
C676: x18+x40 <=1 
C677: x18+x44 <=1 
C678: x18+x45 <=1 
C679: x18+x47-y18_47 <=1 
C680: x18+x48-y18_48 <=1 
C681: x18+x49-y18_49 <=1 
C682: x18+x50 <=1 
C683: x18+x51-y18_51 <=1 
C684: x18+x53 <=1 
C685: x18+x55 <=1 
C686: x18+x57-y18_57 <=1 
C687: x18+x58 <=1 
C688: x18+x59 <=1 
C689: x18+x60-y18_60 <=1 
C690: x18+x64-y18_64 <=1 
C691: x18+x65 <=1 
C692: x18+x66 <=1 
C693: x18+x69-y18_69 <=1 
C694: x19+x20 <=1 
C695: x19+x25-y19_25 <=1 
C696: x19+x30 <=1 
C697: x19+x32-y19_32 <=1 
C698: x19+x33-y19_33 <=1 
C699: x19+x35 <=1 
C700: x19+x38-y19_38 <=1 
C701: x19+x39-y19_39 <=1 
C702: x19+x40 <=1 
C703: x19+x41-y19_41 <=1 
C704: x19+x43-y19_43 <=1 
C705: x19+x44 <=1 
C706: x19+x45-y19_45 <=1 
C707: x19+x46-y19_46 <=1 
C708: x19+x51-y19_51 <=1 
C709: x19+x52-y19_52 <=1 
C710: x19+x53 <=1 
C711: x19+x56-y19_56 <=1 
C712: x19+x57 <=1 
C713: x19+x61-y19_61 <=1 
C714: x19+x62-y19_62 <=1 
C715: x19+x64-y19_64 <=1 
C716: x19+x65-y19_65 <=1 
C717: x19+x66-y19_66 <=1 
C718: x19+x67-y19_67 <=1 
C719: x19+x68 <=1 
C720: x19+x69-y19_69 <=1 
C721: x20+x21-y20_21 <=1 
C722: x20+x22 <=1 
C723: x20+x23-y20_23 <=1 
C724: x20+x26 <=1 
C725: x20+x27 <=1 
C726: x20+x30 <=1 
C727: x20+x31 <=1 
C728: x20+x32-y20_32 <=1 
C729: x20+x33 <=1 
C730: x20+x34-y20_34 <=1 
C731: x20+x35 <=1 
C732: x20+x38-y20_38 <=1 
C733: x20+x41-y20_41 <=1 
C734: x20+x42-y20_42 <=1 
C735: x20+x43-y20_43 <=1 
C736: x20+x44-y20_44 <=1 
C737: x20+x45-y20_45 <=1 
C738: x20+x46-y20_46 <=1 
C739: x20+x47 <=1 
C740: x20+x48 <=1 
C741: x20+x49-y20_49 <=1 
C742: x20+x51-y20_51 <=1 
C743: x20+x52 <=1 
C744: x20+x56-y20_56 <=1 
C745: x20+x57 <=1 
C746: x20+x59-y20_59 <=1 
C747: x20+x60 <=1 
C748: x20+x61-y20_61 <=1 
C749: x20+x64 <=1 
C750: x20+x65 <=1 
C751: x20+x66-y20_66 <=1 
C752: x21+x22 <=1 
C753: x21+x28 <=1 
C754: x21+x30 <=1 
C755: x21+x31 <=1 
C756: x21+x32 <=1 
C757: x21+x33-y21_33 <=1 
C758: x21+x34 <=1 
C759: x21+x39-y21_39 <=1 
C760: x21+x40 <=1 
C761: x21+x42 <=1 
C762: x21+x43-y21_43 <=1 
C763: x21+x44 <=1 
C764: x21+x46-y21_46 <=1 
C765: x21+x47-y21_47 <=1 
C766: x21+x48 <=1 
C767: x21+x50 <=1 
C768: x21+x51 <=1 
C769: x21+x53 <=1 
C770: x21+x54 <=1 
C771: x21+x59-y21_59 <=1 
C772: x21+x61-y21_61 <=1 
C773: x21+x62-y21_62 <=1 
C774: x21+x63 <=1 
C775: x21+x64-y21_64 <=1 
C776: x21+x65 <=1 
C777: x21+x67-y21_67 <=1 
C778: x21+x69 <=1 
C779: x22+x25 <=1 
C780: x22+x26-y22_26 <=1 
C781: x22+x27-y22_27 <=1 
C782: x22+x29-y22_29 <=1 
C783: x22+x31 <=1 
C784: x22+x33-y22_33 <=1 
C785: x22+x37-y22_37 <=1 
C786: x22+x39 <=1 
C787: x22+x41 <=1 
C788: x22+x42-y22_42 <=1 
C789: x22+x46 <=1 
C790: x22+x47-y22_47 <=1 
C791: x22+x48-y22_48 <=1 
C792: x22+x49-y22_49 <=1 
C793: x22+x50-y22_50 <=1 
C794: x22+x51 <=1 
C795: x22+x52 <=1 
C796: x22+x53 <=1 
C797: x22+x54 <=1 
C798: x22+x59 <=1 
C799: x22+x63 <=1 
C800: x22+x64-y22_64 <=1 
C801: x22+x65-y22_65 <=1 
C802: x22+x67-y22_67 <=1 
C803: x23+x24 <=1 
C804: x23+x27-y23_27 <=1 
C805: x23+x30 <=1 
C806: x23+x32-y23_32 <=1 
C807: x23+x33 <=1 
C808: x23+x35-y23_35 <=1 
C809: x23+x37-y23_37 <=1 
C810: x23+x38-y23_38 <=1 
C811: x23+x39 <=1 
C812: x23+x40 <=1 
C813: x23+x42 <=1 
C814: x23+x46 <=1 
C815: x23+x47 <=1 
C816: x23+x48 <=1 
C817: x23+x51-y23_51 <=1 
C818: x23+x57 <=1 
C819: x23+x58 <=1 
C820: x23+x62 <=1 
C821: x23+x63-y23_63 <=1 
C822: x23+x64 <=1 
C823: x23+x65 <=1 
C824: x23+x67-y23_67 <=1 
C825: x23+x69-y23_69 <=1 
C826: x24+x25-y24_25 <=1 
C827: x24+x26 <=1 
C828: x24+x27 <=1 
C829: x24+x28 <=1 
C830: x24+x32 <=1 
C831: x24+x34 <=1 
C832: x24+x35 <=1 
C833: x24+x37 <=1 
C834: x24+x39 <=1 
C835: x24+x40-y24_40 <=1 
C836: x24+x44-y24_44 <=1 
C837: x24+x45 <=1 
C838: x24+x47-y24_47 <=1 
C839: x24+x48-y24_48 <=1 
C840: x24+x49 <=1 
C841: x24+x51 <=1 
C842: x24+x52-y24_52 <=1 
C843: x24+x55-y24_55 <=1 
C844: x24+x56-y24_56 <=1 
C845: x24+x57 <=1 
C846: x24+x58 <=1 
C847: x24+x60-y24_60 <=1 
C848: x24+x61 <=1 
C849: x24+x63-y24_63 <=1 
C850: x24+x64 <=1 
C851: x24+x65-y24_65 <=1 
C852: x24+x66-y24_66 <=1 
C853: x24+x67 <=1 
C854: x25+x29-y25_29 <=1 
C855: x25+x30-y25_30 <=1 
C856: x25+x31 <=1 
C857: x25+x32-y25_32 <=1 
C858: x25+x36 <=1 
C859: x25+x37-y25_37 <=1 
C860: x25+x39-y25_39 <=1 
C861: x25+x40-y25_40 <=1 
C862: x25+x41 <=1 
C863: x25+x44 <=1 
C864: x25+x45-y25_45 <=1 
C865: x25+x51 <=1 
C866: x25+x52 <=1 
C867: x25+x54-y25_54 <=1 
C868: x25+x56-y25_56 <=1 
C869: x25+x57-y25_57 <=1 
C870: x25+x58-y25_58 <=1 
C871: x25+x59-y25_59 <=1 
C872: x25+x64 <=1 
C873: x25+x65 <=1 
C874: x25+x66 <=1 
C875: x25+x68-y25_68 <=1 
C876: x26+x27 <=1 
C877: x26+x28-y26_28 <=1 
C878: x26+x33 <=1 
C879: x26+x34 <=1 
C880: x26+x35-y26_35 <=1 
C881: x26+x36 <=1 
C882: x26+x37 <=1 
C883: x26+x38-y26_38 <=1 
C884: x26+x39-y26_39 <=1 
C885: x26+x40-y26_40 <=1 
C886: x26+x43 <=1 
C887: x26+x44 <=1 
C888: x26+x46 <=1 
C889: x26+x47-y26_47 <=1 
C890: x26+x48-y26_48 <=1 
C891: x26+x49-y26_49 <=1 
C892: x26+x50-y26_50 <=1 
C893: x26+x51 <=1 
C894: x26+x52-y26_52 <=1 
C895: x26+x53-y26_53 <=1 
C896: x26+x57 <=1 
C897: x26+x58 <=1 
C898: x26+x60-y26_60 <=1 
C899: x26+x61-y26_61 <=1 
C900: x26+x65 <=1 
C901: x26+x66-y26_66 <=1 
C902: x26+x67-y26_67 <=1 
C903: x26+x68 <=1 
C904: x26+x69 <=1 
C905: x27+x28-y27_28 <=1 
C906: x27+x29 <=1 
C907: x27+x30 <=1 
C908: x27+x32-y27_32 <=1 
C909: x27+x35-y27_35 <=1 
C910: x27+x37-y27_37 <=1 
C911: x27+x38-y27_38 <=1 
C912: x27+x39 <=1 
C913: x27+x40 <=1 
C914: x27+x47-y27_47 <=1 
C915: x27+x49-y27_49 <=1 
C916: x27+x54-y27_54 <=1 
C917: x27+x55-y27_55 <=1 
C918: x27+x57-y27_57 <=1 
C919: x27+x60-y27_60 <=1 
C920: x27+x62-y27_62 <=1 
C921: x27+x63 <=1 
C922: x27+x64-y27_64 <=1 
C923: x27+x65 <=1 
C924: x27+x67 <=1 
C925: x28+x30-y28_30 <=1 
C926: x28+x31 <=1 
C927: x28+x33 <=1 
C928: x28+x35 <=1 
C929: x28+x36 <=1 
C930: x28+x37-y28_37 <=1 
C931: x28+x39 <=1 
C932: x28+x40-y28_40 <=1 
C933: x28+x42-y28_42 <=1 
C934: x28+x43 <=1 
C935: x28+x44 <=1 
C936: x28+x47-y28_47 <=1 
C937: x28+x48-y28_48 <=1 
C938: x28+x49-y28_49 <=1 
C939: x28+x52 <=1 
C940: x28+x55 <=1 
C941: x28+x58 <=1 
C942: x28+x59 <=1 
C943: x28+x61 <=1 
C944: x28+x63-y28_63 <=1 
C945: x28+x64-y28_64 <=1 
C946: x28+x65 <=1 
C947: x28+x66 <=1 
C948: x28+x67 <=1 
C949: x28+x68 <=1 
C950: x29+x30-y29_30 <=1 
C951: x29+x31 <=1 
C952: x29+x32 <=1 
C953: x29+x35-y29_35 <=1 
C954: x29+x39 <=1 
C955: x29+x42-y29_42 <=1 
C956: x29+x45 <=1 
C957: x29+x46-y29_46 <=1 
C958: x29+x47-y29_47 <=1 
C959: x29+x51-y29_51 <=1 
C960: x29+x52-y29_52 <=1 
C961: x29+x53-y29_53 <=1 
C962: x29+x54 <=1 
C963: x29+x55 <=1 
C964: x29+x56-y29_56 <=1 
C965: x29+x58-y29_58 <=1 
C966: x29+x60 <=1 
C967: x29+x62-y29_62 <=1 
C968: x29+x65-y29_65 <=1 
C969: x29+x68-y29_68 <=1 
C970: x29+x69-y29_69 <=1 
C971: x30+x34-y30_34 <=1 
C972: x30+x36 <=1 
C973: x30+x37-y30_37 <=1 
C974: x30+x40 <=1 
C975: x30+x41 <=1 
C976: x30+x42-y30_42 <=1 
C977: x30+x43-y30_43 <=1 
C978: x30+x44 <=1 
C979: x30+x45-y30_45 <=1 
C980: x30+x47-y30_47 <=1 
C981: x30+x48 <=1 
C982: x30+x49 <=1 
C983: x30+x51-y30_51 <=1 
C984: x30+x52 <=1 
C985: x30+x53 <=1 
C986: x30+x54-y30_54 <=1 
C987: x30+x55 <=1 
C988: x30+x57-y30_57 <=1 
C989: x30+x58 <=1 
C990: x30+x61 <=1 
C991: x30+x62-y30_62 <=1 
C992: x30+x63-y30_63 <=1 
C993: x30+x65-y30_65 <=1 
C994: x30+x67 <=1 
C995: x30+x68-y30_68 <=1 
C996: x30+x69-y30_69 <=1 
C997: x31+x32 <=1 
C998: x31+x34-y31_34 <=1 
C999: x31+x35 <=1 
C1000: x31+x37 <=1 
C1001: x31+x38-y31_38 <=1 
C1002: x31+x43 <=1 
C1003: x31+x44-y31_44 <=1 
C1004: x31+x45-y31_45 <=1 
C1005: x31+x46 <=1 
C1006: x31+x47-y31_47 <=1 
C1007: x31+x48 <=1 
C1008: x31+x50-y31_50 <=1 
C1009: x31+x51-y31_51 <=1 
C1010: x31+x53-y31_53 <=1 
C1011: x31+x54-y31_54 <=1 
C1012: x31+x55 <=1 
C1013: x31+x58-y31_58 <=1 
C1014: x31+x59-y31_59 <=1 
C1015: x31+x60 <=1 
C1016: x31+x61-y31_61 <=1 
C1017: x31+x64 <=1 
C1018: x31+x66-y31_66 <=1 
C1019: x31+x68 <=1 
C1020: x31+x69 <=1 
C1021: x32+x33 <=1 
C1022: x32+x34 <=1 
C1023: x32+x35 <=1 
C1024: x32+x37 <=1 
C1025: x32+x40-y32_40 <=1 
C1026: x32+x41-y32_41 <=1 
C1027: x32+x43 <=1 
C1028: x32+x45-y32_45 <=1 
C1029: x32+x46-y32_46 <=1 
C1030: x32+x47 <=1 
C1031: x32+x48-y32_48 <=1 
C1032: x32+x50 <=1 
C1033: x32+x51 <=1 
C1034: x32+x52 <=1 
C1035: x32+x53 <=1 
C1036: x32+x54 <=1 
C1037: x32+x56-y32_56 <=1 
C1038: x32+x57 <=1 
C1039: x32+x59-y32_59 <=1 
C1040: x32+x61 <=1 
C1041: x32+x65-y32_65 <=1 
C1042: x32+x66-y32_66 <=1 
C1043: x32+x69-y32_69 <=1 
C1044: x33+x36-y33_36 <=1 
C1045: x33+x40-y33_40 <=1 
C1046: x33+x41-y33_41 <=1 
C1047: x33+x42-y33_42 <=1 
C1048: x33+x44 <=1 
C1049: x33+x45 <=1 
C1050: x33+x46 <=1 
C1051: x33+x47-y33_47 <=1 
C1052: x33+x49-y33_49 <=1 
C1053: x33+x51 <=1 
C1054: x33+x52-y33_52 <=1 
C1055: x33+x54-y33_54 <=1 
C1056: x33+x55-y33_55 <=1 
C1057: x33+x58 <=1 
C1058: x33+x59-y33_59 <=1 
C1059: x33+x62-y33_62 <=1 
C1060: x33+x63-y33_63 <=1 
C1061: x33+x64-y33_64 <=1 
C1062: x33+x65-y33_65 <=1 
C1063: x33+x67 <=1 
C1064: x33+x68 <=1 
C1065: x33+x69-y33_69 <=1 
C1066: x34+x35 <=1 
C1067: x34+x36-y34_36 <=1 
C1068: x34+x38 <=1 
C1069: x34+x39 <=1 
C1070: x34+x42-y34_42 <=1 
C1071: x34+x46 <=1 
C1072: x34+x48-y34_48 <=1 
C1073: x34+x49-y34_49 <=1 
C1074: x34+x52-y34_52 <=1 
C1075: x34+x53-y34_53 <=1 
C1076: x34+x54 <=1 
C1077: x34+x55-y34_55 <=1 
C1078: x34+x56 <=1 
C1079: x34+x57-y34_57 <=1 
C1080: x34+x60 <=1 
C1081: x34+x63 <=1 
C1082: x34+x64 <=1 
C1083: x34+x65-y34_65 <=1 
C1084: x34+x66 <=1 
C1085: x34+x68 <=1 
C1086: x34+x69-y34_69 <=1 
C1087: x35+x37 <=1 
C1088: x35+x40-y35_40 <=1 
C1089: x35+x44 <=1 
C1090: x35+x50-y35_50 <=1 
C1091: x35+x51 <=1 
C1092: x35+x52 <=1 
C1093: x35+x59 <=1 
C1094: x35+x62 <=1 
C1095: x35+x68-y35_68 <=1 
C1096: x36+x38 <=1 
C1097: x36+x39 <=1 
C1098: x36+x41 <=1 
C1099: x36+x44-y36_44 <=1 
C1100: x36+x45 <=1 
C1101: x36+x47-y36_47 <=1 
C1102: x36+x48 <=1 
C1103: x36+x49-y36_49 <=1 
C1104: x36+x52-y36_52 <=1 
C1105: x36+x54-y36_54 <=1 
C1106: x36+x55 <=1 
C1107: x36+x56-y36_56 <=1 
C1108: x36+x57 <=1 
C1109: x36+x61-y36_61 <=1 
C1110: x36+x62-y36_62 <=1 
C1111: x36+x63 <=1 
C1112: x36+x64 <=1 
C1113: x36+x65 <=1 
C1114: x36+x69 <=1 
C1115: x37+x41-y37_41 <=1 
C1116: x37+x42 <=1 
C1117: x37+x43-y37_43 <=1 
C1118: x37+x45 <=1 
C1119: x37+x49-y37_49 <=1 
C1120: x37+x50-y37_50 <=1 
C1121: x37+x52-y37_52 <=1 
C1122: x37+x54 <=1 
C1123: x37+x56-y37_56 <=1 
C1124: x37+x58-y37_58 <=1 
C1125: x37+x59-y37_59 <=1 
C1126: x37+x61-y37_61 <=1 
C1127: x37+x62 <=1 
C1128: x37+x63 <=1 
C1129: x37+x67-y37_67 <=1 
C1130: x37+x68 <=1 
C1131: x37+x69 <=1 
C1132: x38+x39-y38_39 <=1 
C1133: x38+x44 <=1 
C1134: x38+x46-y38_46 <=1 
C1135: x38+x50 <=1 
C1136: x38+x51-y38_51 <=1 
C1137: x38+x52-y38_52 <=1 
C1138: x38+x55 <=1 
C1139: x38+x57-y38_57 <=1 
C1140: x38+x58 <=1 
C1141: x38+x61 <=1 
C1142: x38+x64 <=1 
C1143: x38+x65-y38_65 <=1 
C1144: x38+x66-y38_66 <=1 
C1145: x38+x68 <=1 
C1146: x39+x40 <=1 
C1147: x39+x41 <=1 
C1148: x39+x44-y39_44 <=1 
C1149: x39+x45 <=1 
C1150: x39+x46 <=1 
C1151: x39+x48-y39_48 <=1 
C1152: x39+x49-y39_49 <=1 
C1153: x39+x57-y39_57 <=1 
C1154: x39+x59-y39_59 <=1 
C1155: x39+x60-y39_60 <=1 
C1156: x39+x64 <=1 
C1157: x39+x67 <=1 
C1158: x39+x69 <=1 
C1159: x40+x41-y40_41 <=1 
C1160: x40+x44 <=1 
C1161: x40+x46 <=1 
C1162: x40+x47-y40_47 <=1 
C1163: x40+x48 <=1 
C1164: x40+x49-y40_49 <=1 
C1165: x40+x50 <=1 
C1166: x40+x51-y40_51 <=1 
C1167: x40+x52 <=1 
C1168: x40+x54-y40_54 <=1 
C1169: x40+x55-y40_55 <=1 
C1170: x40+x58 <=1 
C1171: x40+x59-y40_59 <=1 
C1172: x40+x61 <=1 
C1173: x40+x62-y40_62 <=1 
C1174: x40+x64-y40_64 <=1 
C1175: x40+x65-y40_65 <=1 
C1176: x40+x66-y40_66 <=1 
C1177: x40+x68-y40_68 <=1 
C1178: x40+x69-y40_69 <=1 
C1179: x41+x42-y41_42 <=1 
C1180: x41+x44-y41_44 <=1 
C1181: x41+x45 <=1 
C1182: x41+x46 <=1 
C1183: x41+x47 <=1 
C1184: x41+x49-y41_49 <=1 
C1185: x41+x50-y41_50 <=1 
C1186: x41+x51 <=1 
C1187: x41+x55-y41_55 <=1 
C1188: x41+x56 <=1 
C1189: x41+x57 <=1 
C1190: x41+x58 <=1 
C1191: x41+x59-y41_59 <=1 
C1192: x41+x61-y41_61 <=1 
C1193: x41+x62 <=1 
C1194: x41+x65-y41_65 <=1 
C1195: x41+x69 <=1 
C1196: x42+x44 <=1 
C1197: x42+x45 <=1 
C1198: x42+x47-y42_47 <=1 
C1199: x42+x48 <=1 
C1200: x42+x49-y42_49 <=1 
C1201: x42+x51 <=1 
C1202: x42+x52-y42_52 <=1 
C1203: x42+x53 <=1 
C1204: x42+x55 <=1 
C1205: x42+x57 <=1 
C1206: x42+x58 <=1 
C1207: x42+x59 <=1 
C1208: x42+x60 <=1 
C1209: x42+x62 <=1 
C1210: x42+x63 <=1 
C1211: x42+x65 <=1 
C1212: x42+x66 <=1 
C1213: x42+x67 <=1 
C1214: x42+x69 <=1 
C1215: x43+x44-y43_44 <=1 
C1216: x43+x45-y43_45 <=1 
C1217: x43+x46-y43_46 <=1 
C1218: x43+x48-y43_48 <=1 
C1219: x43+x49-y43_49 <=1 
C1220: x43+x51 <=1 
C1221: x43+x53-y43_53 <=1 
C1222: x43+x56-y43_56 <=1 
C1223: x43+x58-y43_58 <=1 
C1224: x43+x59 <=1 
C1225: x43+x61-y43_61 <=1 
C1226: x43+x63-y43_63 <=1 
C1227: x43+x64-y43_64 <=1 
C1228: x43+x65 <=1 
C1229: x43+x66 <=1 
C1230: x43+x67 <=1 
C1231: x43+x68 <=1 
C1232: x43+x69-y43_69 <=1 
C1233: x44+x45-y44_45 <=1 
C1234: x44+x47 <=1 
C1235: x44+x49-y44_49 <=1 
C1236: x44+x51 <=1 
C1237: x44+x53-y44_53 <=1 
C1238: x44+x54 <=1 
C1239: x44+x57-y44_57 <=1 
C1240: x44+x58 <=1 
C1241: x44+x59 <=1 
C1242: x44+x64 <=1 
C1243: x44+x66 <=1 
C1244: x44+x67-y44_67 <=1 
C1245: x44+x68-y44_68 <=1 
C1246: x44+x69-y44_69 <=1 
C1247: x45+x47-y45_47 <=1 
C1248: x45+x51 <=1 
C1249: x45+x54 <=1 
C1250: x45+x55 <=1 
C1251: x45+x57 <=1 
C1252: x45+x58-y45_58 <=1 
C1253: x45+x59-y45_59 <=1 
C1254: x45+x60 <=1 
C1255: x45+x65 <=1 
C1256: x45+x66-y45_66 <=1 
C1257: x45+x67 <=1 
C1258: x46+x47 <=1 
C1259: x46+x49 <=1 
C1260: x46+x51-y46_51 <=1 
C1261: x46+x52 <=1 
C1262: x46+x53-y46_53 <=1 
C1263: x46+x54 <=1 
C1264: x46+x55 <=1 
C1265: x46+x57-y46_57 <=1 
C1266: x46+x59-y46_59 <=1 
C1267: x46+x61 <=1 
C1268: x46+x64 <=1 
C1269: x46+x66-y46_66 <=1 
C1270: x46+x67-y46_67 <=1 
C1271: x46+x69 <=1 
C1272: x47+x49-y47_49 <=1 
C1273: x47+x51-y47_51 <=1 
C1274: x47+x52-y47_52 <=1 
C1275: x47+x53-y47_53 <=1 
C1276: x47+x56-y47_56 <=1 
C1277: x47+x57 <=1 
C1278: x47+x58-y47_58 <=1 
C1279: x47+x59 <=1 
C1280: x47+x62-y47_62 <=1 
C1281: x47+x63-y47_63 <=1 
C1282: x47+x64-y47_64 <=1 
C1283: x47+x66 <=1 
C1284: x47+x67-y47_67 <=1 
C1285: x47+x69-y47_69 <=1 
C1286: x48+x49 <=1 
C1287: x48+x51-y48_51 <=1 
C1288: x48+x55 <=1 
C1289: x48+x56-y48_56 <=1 
C1290: x48+x57 <=1 
C1291: x48+x61-y48_61 <=1 
C1292: x48+x62-y48_62 <=1 
C1293: x48+x63-y48_63 <=1 
C1294: x48+x64-y48_64 <=1 
C1295: x48+x65-y48_65 <=1 
C1296: x48+x66-y48_66 <=1 
C1297: x48+x68-y48_68 <=1 
C1298: x49+x52 <=1 
C1299: x49+x53-y49_53 <=1 
C1300: x49+x56 <=1 
C1301: x49+x57 <=1 
C1302: x49+x58-y49_58 <=1 
C1303: x49+x59 <=1 
C1304: x49+x60-y49_60 <=1 
C1305: x49+x61-y49_61 <=1 
C1306: x49+x62 <=1 
C1307: x49+x63-y49_63 <=1 
C1308: x49+x64-y49_64 <=1 
C1309: x49+x65 <=1 
C1310: x49+x66-y49_66 <=1 
C1311: x49+x67 <=1 
C1312: x49+x69-y49_69 <=1 
C1313: x50+x52-y50_52 <=1 
C1314: x50+x54-y50_54 <=1 
C1315: x50+x55-y50_55 <=1 
C1316: x50+x57-y50_57 <=1 
C1317: x50+x58 <=1 
C1318: x50+x59 <=1 
C1319: x50+x60 <=1 
C1320: x50+x61 <=1 
C1321: x50+x62 <=1 
C1322: x50+x63 <=1 
C1323: x50+x64-y50_64 <=1 
C1324: x50+x65-y50_65 <=1 
C1325: x50+x67-y50_67 <=1 
C1326: x50+x69-y50_69 <=1 
C1327: x51+x52 <=1 
C1328: x51+x56-y51_56 <=1 
C1329: x51+x58 <=1 
C1330: x51+x59-y51_59 <=1 
C1331: x51+x62 <=1 
C1332: x51+x64-y51_64 <=1 
C1333: x51+x67 <=1 
C1334: x51+x68 <=1 
C1335: x51+x69 <=1 
C1336: x52+x53-y52_53 <=1 
C1337: x52+x54 <=1 
C1338: x52+x55 <=1 
C1339: x52+x56-y52_56 <=1 
C1340: x52+x59-y52_59 <=1 
C1341: x52+x62 <=1 
C1342: x52+x63 <=1 
C1343: x52+x67-y52_67 <=1 
C1344: x53+x55-y53_55 <=1 
C1345: x53+x57 <=1 
C1346: x53+x58-y53_58 <=1 
C1347: x53+x59-y53_59 <=1 
C1348: x53+x60-y53_60 <=1 
C1349: x53+x61-y53_61 <=1 
C1350: x53+x63-y53_63 <=1 
C1351: x53+x64 <=1 
C1352: x53+x65-y53_65 <=1 
C1353: x53+x67-y53_67 <=1 
C1354: x53+x68-y53_68 <=1 
C1355: x53+x69 <=1 
C1356: x54+x57-y54_57 <=1 
C1357: x54+x58-y54_58 <=1 
C1358: x54+x60 <=1 
C1359: x54+x61 <=1 
C1360: x54+x65 <=1 
C1361: x54+x66 <=1 
C1362: x54+x68 <=1 
C1363: x55+x57-y55_57 <=1 
C1364: x55+x58 <=1 
C1365: x55+x60-y55_60 <=1 
C1366: x55+x61-y55_61 <=1 
C1367: x55+x65-y55_65 <=1 
C1368: x55+x66-y55_66 <=1 
C1369: x55+x67-y55_67 <=1 
C1370: x55+x69 <=1 
C1371: x56+x57-y56_57 <=1 
C1372: x56+x58-y56_58 <=1 
C1373: x56+x60-y56_60 <=1 
C1374: x56+x61-y56_61 <=1 
C1375: x56+x62-y56_62 <=1 
C1376: x56+x63 <=1 
C1377: x56+x64-y56_64 <=1 
C1378: x56+x65 <=1 
C1379: x56+x66 <=1 
C1380: x56+x67 <=1 
C1381: x57+x60-y57_60 <=1 
C1382: x57+x61 <=1 
C1383: x57+x63-y57_63 <=1 
C1384: x57+x65-y57_65 <=1 
C1385: x57+x66-y57_66 <=1 
C1386: x58+x59 <=1 
C1387: x58+x61-y58_61 <=1 
C1388: x58+x63 <=1 
C1389: x58+x65-y58_65 <=1 
C1390: x58+x66-y58_66 <=1 
C1391: x58+x68 <=1 
C1392: x58+x69-y58_69 <=1 
C1393: x59+x60-y59_60 <=1 
C1394: x59+x63 <=1 
C1395: x59+x64-y59_64 <=1 
C1396: x59+x66-y59_66 <=1 
C1397: x59+x68-y59_68 <=1 
C1398: x59+x69-y59_69 <=1 
C1399: x60+x61 <=1 
C1400: x60+x62-y60_62 <=1 
C1401: x60+x63-y60_63 <=1 
C1402: x60+x64 <=1 
C1403: x60+x65 <=1 
C1404: x60+x66-y60_66 <=1 
C1405: x60+x67 <=1 
C1406: x60+x69 <=1 
C1407: x61+x66 <=1 
C1408: x61+x67-y61_67 <=1 
C1409: x61+x68-y61_68 <=1 
C1410: x62+x65 <=1 
C1411: x62+x66 <=1 
C1412: x62+x68-y62_68 <=1 
C1413: x62+x69 <=1 
C1414: x63+x64-y63_64 <=1 
C1415: x63+x65-y63_65 <=1 
C1416: x63+x68 <=1 
C1417: x63+x69-y63_69 <=1 
C1418: x64+x66-y64_66 <=1 
C1419: x64+x67 <=1 
C1420: x64+x68-y64_68 <=1 
C1421: x64+x69 <=1 
C1422: x65+x66-y65_66 <=1 
C1423: x65+x68 <=1 
C1424: x65+x69 <=1 
C1425: x66+x68-y66_68 <=1 
C1426: x66+x69-y66_69 <=1 
C1427: x67+x69-y67_69 <=1 
C1428: x68+x69 <=1 

binary
x0
x1
x2
x3
x4
x5
x6
x7
x8
x9
x10
x11
x12
x13
x14
x15
x16
x17
x18
x19
x20
x21
x22
x23
x24
x25
x26
x27
x28
x29
x30
x31
x32
x33
x34
x35
x36
x37
x38
x39
x40
x41
x42
x43
x44
x45
x46
x47
x48
x49
x50
x51
x52
x53
x54
x55
x56
x57
x58
x59
x60
x61
x62
x63
x64
x65
x66
x67
x68
x69
